184 280 433 462 534 591 681 796 807 826
0 52 100 174 212 316 254 230 518 408
496 433 366 674 589 699 771 822 925 983
157 121 0 312 230 527 448 356 654 580
280 156 462 436 363 606 566 921 824 698
63 32 300 212 131 436 366 700 599 527
436 100 167 492 312 771 526 566 862 619
131 0 32 157 95 174 599 448 463 564
363 698 539 585 674 972 822 914 991 921
11 534 260 356 436 576 914 619 731 802
